%mem=24GB
%nprocshared=12
# B3LYP/6-31+G(d,p) NormalPNO TightSCF printbasis

 Pentanol 217

0 1
O          -2.86080        -0.74900        -0.17340
C          -2.12760        -0.06090         0.83010
C          -0.79640         0.44560         0.28350
C           0.12090        -0.70120        -0.15340
C           1.43640        -0.22210        -0.77200
C           2.34130         0.50530         0.21040
H          -2.99790        -0.13090        -0.91150
H          -1.97020        -0.74560         1.66930
H          -2.73740         0.77580         1.18590
H          -0.30830         1.04540         1.05870
H          -0.98250         1.09890        -0.57730
H          -0.39700        -1.31940        -0.89660
H           0.33350        -1.35090         0.70440
H           1.97530        -1.09520        -1.15920
H           1.23060         0.42880        -1.62960
H           3.30200         0.73310        -0.26250
H           1.90130         1.45200         0.53670
H           2.53670        -0.10960         1.09460

