%mem=24GB
%nprocshared=12
# B3LYP/6-31+G(d,p) NormalPNO TightSCF printbasis

 Pentanol 208

0 1
O           3.17000        -0.77260         0.55160
C           1.83800        -0.78250         0.05270
C           1.18990         0.57550         0.29240
C          -0.22040         0.69360        -0.28600
C          -1.23310        -0.22900         0.39320
C          -2.63860         0.00170        -0.14100
H           3.65860        -0.08430         0.06890
H           1.86980        -1.02680        -1.01380
H           1.29900        -1.57880         0.57310
H           1.82130         1.35430        -0.15390
H           1.17760         0.79040         1.36830
H          -0.55100         1.73360        -0.17270
H          -0.19440         0.48680        -1.36290
H          -1.22740        -0.05640         1.47560
H          -0.96380        -1.27770         0.22810
H          -2.68510        -0.18980        -1.21780
H          -3.34710        -0.66950         0.35450
H          -2.96340         1.03130         0.03990

