%mem=24GB
%nprocshared=12
# B3LYP/6-31+G(d,p) NormalPNO TightSCF printbasis

 Pentanol 206

0 1
O          -2.30190         1.84690        -0.68220
C          -1.21560         1.14540        -0.08860
C          -1.16480        -0.27420        -0.63350
C          -0.15140        -1.18780         0.05900
C           1.31080        -0.76390        -0.10470
C           1.83150         0.06300         1.06210
H          -2.15630         1.85210        -1.64360
H          -0.29880         1.69690        -0.31390
H          -1.36840         1.14480         0.99480
H          -2.16220        -0.72370        -0.54240
H          -0.96130        -0.24150        -1.71150
H          -0.40760        -1.29790         1.11950
H          -0.26330        -2.18420        -0.38810
H           1.45690        -0.22160        -1.04550
H           1.92770        -1.66910        -0.16570
H           2.88800         0.30530         0.90760
H           1.28690         1.00300         1.17540
H           1.74970        -0.49360         2.00140

