%mem=24GB
%nprocshared=12
# B3LYP/6-31+G(d,p) NormalPNO TightSCF printbasis

 Pentanol 322

0 1
O          -3.11180         0.42400         0.43940
C          -2.15210        -0.19400        -0.40690
C          -0.76400         0.02650         0.17950
C           0.31910        -0.61350        -0.68740
C           1.72090        -0.50710        -0.08340
C           2.23560         0.92110         0.00900
H          -3.98530         0.26790         0.04150
H          -2.38340        -1.26190        -0.47330
H          -2.22960         0.25050        -1.40420
H          -0.73000        -0.38530         1.19580
H          -0.59110         1.10380         0.28460
H           0.08580        -1.67660        -0.82540
H           0.31300        -0.15700        -1.68470
H           1.73410        -0.96480         0.91260
H           2.41230        -1.08620        -0.70720
H           3.27380         0.92400         0.35640
H           1.64890         1.51430         0.71630
H           2.20400         1.41430        -0.96760

