%mem=24GB
%nprocshared=12
# B3LYP/6-31+G(d,p) NormalPNO TightSCF printbasis

 Pentanol 99

0 1
O           3.43490         0.13410        -0.18800
C           2.19210        -0.34500         0.30680
C           1.06560         0.28240        -0.50190
C          -0.30460        -0.19070        -0.02160
C          -1.42980         0.44370        -0.83860
C          -2.79590        -0.02500        -0.36340
H           4.13360        -0.28180         0.34530
H           2.17820        -1.43570         0.21530
H           2.11110        -0.07490         1.36450
H           1.13530         1.37540        -0.43440
H           1.20120         0.03870        -1.56310
H          -0.36440        -1.28310        -0.10020
H          -0.43080         0.06430         1.03770
H          -1.37710         1.53580        -0.76000
H          -1.31060         0.18830        -1.89800
H          -3.58550         0.44090        -0.96110
H          -2.96000         0.24380         0.68500
H          -2.89320        -1.11110        -0.45920

