%mem=24GB
%nprocshared=12
# B3LYP/6-31+G(d,p) NormalPNO TightSCF printbasis

 Pentanol 278

0 1
O           3.18970         0.01880         0.66380
C           2.21020         0.14720        -0.35810
C           0.82370        -0.11070         0.21930
C          -0.25920         0.00140        -0.85270
C          -1.65750        -0.35160        -0.34150
C          -2.18640         0.62090         0.70130
H           2.98500         0.67650         1.35010
H           2.28350         1.15260        -0.78490
H           2.44660        -0.57730        -1.14360
H           0.63890         0.60140         1.03190
H           0.80250        -1.10640         0.67920
H          -0.26510         1.01650        -1.26830
H          -0.01600        -0.67700        -1.67990
H          -1.65850        -1.36670         0.07240
H          -2.34740        -0.35660        -1.19390
H          -2.16710         1.64890         0.32590
H          -1.60080         0.57770         1.62420
H          -3.22200         0.37250         0.95490

