%mem=24GB
%nprocshared=12
# B3LYP/6-31+G(d,p) NormalPNO TightSCF printbasis

 Pentanol 11

0 1
O          -1.89290         0.29860         1.35640
C          -2.06960         0.31020        -0.05200
C          -0.88340         0.98610        -0.73050
C           0.37310         0.11190        -0.82810
C           1.01010        -0.22560         0.51960
C           2.33970        -0.94330         0.33990
H          -2.67460        -0.13500         1.73910
H          -2.98460         0.87170        -0.26670
H          -2.19910        -0.71720        -0.40660
H          -0.63420         1.91700        -0.20720
H          -1.17970         1.25340        -1.75210
H           0.13320        -0.81480        -1.36380
H           1.10680         0.64730        -1.44400
H           0.34570        -0.87160         1.10250
H           1.17220         0.69090         1.09810
H           2.20870        -1.87830        -0.21420
H           2.77510        -1.18390         1.31480
H           3.05350        -0.31730        -0.20510

