%mem=24GB
%nprocshared=12
# B3LYP/6-31+G(d,p) NormalPNO TightSCF printbasis

 Pentanol 212

0 1
O           1.50140         0.75550        -1.18810
C           1.89660        -0.14750        -0.16730
C           0.74150        -1.06970         0.20720
C          -0.32730        -0.41520         1.09190
C          -1.11450         0.74030         0.47110
C          -1.89950         0.34480        -0.76980
H           2.27200         1.31240        -1.39150
H           2.24770         0.42180         0.69920
H           2.73030        -0.74220        -0.55450
H           0.27690        -1.47730        -0.69730
H           1.15300        -1.91910         0.76630
H          -1.03700        -1.19340         1.40080
H           0.14840        -0.05480         2.01270
H          -0.44970         1.57840         0.23840
H          -1.82230         1.11300         1.22180
H          -2.56490        -0.49880        -0.56080
H          -2.51490         1.18480        -1.10790
H          -1.23760         0.06680        -1.59470

