%mem=24GB
%nprocshared=12
# B3LYP/6-31+G(d,p) NormalPNO TightSCF printbasis

 Pentanol 89

0 1
O          -2.21200         1.13710         0.63440
C          -2.02810         0.07190        -0.28620
C          -1.09210        -0.97520         0.30620
C           0.29280        -0.44490         0.69450
C           1.10470         0.05850        -0.49940
C           2.51000         0.46500        -0.08240
H          -2.81930         1.77240         0.21850
H          -1.63580         0.47670        -1.22360
H          -3.00500        -0.37810        -0.49060
H          -1.55500        -1.38190         1.21410
H          -0.98420        -1.80600        -0.40060
H           0.84290        -1.25820         1.18440
H           0.19250         0.35490         1.43800
H           0.61220         0.92290        -0.95740
H           1.16910        -0.72450        -1.26360
H           2.48140         1.26720         0.66200
H           3.07300         0.82530        -0.94900
H           3.05320        -0.38310         0.34640

