%mem=24GB
%nprocshared=12
# B3LYP/6-31+G(d,p) NormalPNO TightSCF printbasis

 Mol2 217

0 1
C          -3.04400        -1.26470        -0.97420
C          -1.77960        -2.04740        -0.63330
C          -0.50280        -1.19320        -0.50380
C          -0.07760        -0.55010        -1.80330
C           1.02320         0.19910        -2.00660
C           2.08390         0.52850        -0.99930
S           1.82830         2.23360        -0.42320
C           3.17040         2.30490         0.78660
N          -0.65890        -0.14130         0.48130
C          -0.56910        -0.38200         1.82960
C          -0.70360         0.85060         2.68230
O          -0.37100        -1.49120         2.31420
H          -2.95730        -0.74990        -1.93520
H          -3.89710        -1.94810        -1.04020
H          -3.27360        -0.52190        -0.20410
H          -1.62460        -2.81880        -1.39810
H          -1.95540        -2.57820         0.31060
H           0.30110        -1.86260        -0.17080
H          -0.72660        -0.71540        -2.66150
H           1.18990         0.59980        -3.00590
H           3.06770         0.44490        -1.47240
H           2.06550        -0.15560        -0.14630
H           3.01700         1.55680         1.56890
H           3.18450         3.29450         1.25080
H           4.13350         2.13600         0.29810
H          -0.71010         0.81600         0.15250
H          -1.17600         1.66970         2.13280
H          -1.32670         0.61930         3.55070
H           0.28890         1.16680         3.01350

