%mem=24GB
%nprocshared=12
# B3LYP/6-31+G(d,p) NormalPNO TightSCF printbasis

 Mol2 306

0 1
C          -0.37990        -2.51780         1.28870
C          -1.42050        -1.57790         0.69420
C          -0.87310        -0.16590         0.42750
C           0.19930        -0.15720        -0.63060
C           1.41420         0.39390        -0.46260
C           2.48830         0.40160        -1.50560
S           3.80030        -0.77690        -1.07380
C           4.61760         0.15130         0.24730
N          -1.91970         0.71680        -0.05190
C          -2.80710         1.31510         0.81180
C          -3.87690         2.12490         0.12980
O          -2.75730         1.20110         2.03190
H           0.44640        -2.69470         0.59350
H           0.03080        -2.10990         2.21780
H          -0.83600        -3.48650         1.51710
H          -2.26800        -1.51790         1.38840
H          -1.81560        -2.01530        -0.23180
H          -0.48810         0.24650         1.36890
H          -0.03250        -0.65880        -1.56810
H           1.64390         0.89240         0.47700
H           2.90340         1.40770        -1.62220
H           2.08550         0.10690        -2.48060
H           5.50640        -0.39760         0.57020
H           3.95580         0.26640         1.10910
H           4.93190         1.13440        -0.11280
H          -2.11860         0.73120        -1.04240
H          -3.99250         3.07800         0.65350
H          -3.61960         2.33740        -0.91160
H          -4.81850         1.57070         0.15930

