%mem=24GB
%nprocshared=12
# B3LYP/6-31+G(d,p) NormalPNO TightSCF printbasis

 Mol2 514

0 1
C          -0.42140        -2.49240        -1.14930
C          -1.24680        -1.21860        -1.27620
C          -0.72740        -0.07620        -0.38610
C           0.63830         0.40240        -0.81160
C           1.71050         0.59490        -0.02240
C           1.77820         0.43480         1.46650
S           2.49060        -1.18040         1.89360
C           4.22680        -0.85860         1.50020
N          -1.59660         1.08320        -0.46740
C          -2.76540         1.16060         0.25310
C          -3.57650         2.39770        -0.02450
O          -3.13980         0.30360         1.04610
H           0.60550        -2.34280        -1.49640
H          -0.86510        -3.28920        -1.75470
H          -0.38870        -2.83560        -0.11030
H          -1.26890        -0.90460        -2.32780
H          -2.28450        -1.45150        -1.00650
H          -0.72600        -0.42670         0.65140
H           0.76570         0.57670        -1.87920
H           2.63080         0.93090        -0.49720
H           2.37830         1.23850         1.90590
H           0.78830         0.50530         1.92600
H           4.82280        -1.73180         1.77920
H           4.35710        -0.68410         0.42940
H           4.59390         0.00330         2.06340
H          -1.43590         1.75140        -1.20810
H          -3.93150         2.81280         0.92300
H          -4.42960         2.13230        -0.65410
H          -2.98300         3.16400        -0.53080

