%mem=24GB
%nprocshared=12
# B3LYP/6-31+G(d,p) NormalPNO TightSCF printbasis

 Mol2 121

0 1
C          -2.28470        -2.72850        -0.00720
C          -1.18870        -2.07430        -0.83760
C          -0.53040        -0.87370        -0.13900
C           0.63310        -0.36510        -0.95190
C           1.82960        -0.04490        -0.42850
C           2.99460         0.45050        -1.22770
S           3.21180         2.23830        -0.99410
C           3.90160         2.24260         0.67930
N          -1.43900         0.24670        -0.00390
C          -2.13320         0.49370         1.15600
C          -3.02870         1.70200         1.09200
O          -2.05950        -0.20460         2.16180
H          -1.90680        -3.03180         0.97420
H          -2.65790        -3.62270        -0.51680
H          -3.13270        -2.05310         0.13900
H          -1.61480        -1.76920        -1.80220
H          -0.42540        -2.83300        -1.05310
H          -0.18770        -1.18290         0.85620
H           0.47330        -0.25110        -2.02240
H           1.98610        -0.15940         0.64240
H           2.83580         0.27260        -2.29680
H           3.90800        -0.08380        -0.94750
H           4.79820         1.61910         0.72590
H           4.17920         3.26590         0.94660
H           3.16530         1.88820         1.40470
H          -1.57170         0.85520        -0.79990
H          -2.80810         2.32490         0.22090
H          -2.87780         2.30630         1.99080
H          -4.06960         1.37240         1.03880

