%mem=24GB
%nprocshared=12
# B3LYP/6-31+G(d,p) NormalPNO TightSCF printbasis

 Mol2 132

0 1
C           1.34380         2.31400        -0.75290
C           1.70620         1.75880         0.62090
C           1.13580         0.35690         0.91750
C          -0.37670         0.33930         0.90090
C          -1.18900        -0.58190         0.34990
C          -2.68530        -0.51240         0.38270
S          -3.29410        -0.35350        -1.32130
C          -5.06630        -0.30770        -0.96690
N           1.65770        -0.62610        -0.01240
C           2.90540        -1.18000         0.15180
C           3.32920        -2.07840        -0.97880
O           3.62950        -0.96420         1.11780
H           0.26140         2.42130        -0.87150
H           1.71830         1.67110        -1.55530
H           1.79180         3.30440        -0.88370
H           1.35400         2.46280         1.38550
H           2.79980         1.73290         0.70370
H           1.45770         0.07600         1.92840
H          -0.83660         1.18380         1.41400
H          -0.77150        -1.46050        -0.13610
H          -3.03440         0.34180         0.97170
H          -3.08090        -1.42920         0.83060
H          -5.37960        -1.23000        -0.47070
H          -5.61900        -0.21320        -1.90530
H          -5.30640         0.55100        -0.33460
H           1.23180        -0.66600        -0.92870
H           2.47640        -2.38160        -1.59260
H           3.78960        -2.98040        -0.56600
H           4.05130        -1.54880        -1.60550

