%mem=24GB
%nprocshared=12
# B3LYP/6-31+G(d,p) NormalPNO TightSCF printbasis

 Mol2 338

0 1
C          -1.24260        -1.87100        -1.47850
C          -1.55790        -2.02030         0.00550
C          -0.94220        -0.93800         0.91290
C           0.56740        -1.02120         0.96310
C           1.44630        -0.39390         0.15880
C           2.93430        -0.51930         0.28110
S           3.65320         1.08510         0.73950
C           3.69080         1.87100        -0.89020
N          -1.33680         0.41740         0.56940
C          -2.63330         0.85140         0.73510
C          -2.81980         2.32110         0.46700
O          -3.56310         0.13300         1.08460
H          -0.17380        -1.98850        -1.67790
H          -1.56400        -0.89740        -1.86060
H          -1.76890        -2.64330        -2.04930
H          -2.64780        -2.02230         0.12050
H          -1.21640        -3.00910         0.33770
H          -1.30820        -1.10820         1.93430
H           0.95120        -1.66020         1.75810
H           1.07840         0.21880        -0.66080
H           3.36870        -0.87840        -0.65710
H           3.20500        -1.23970         1.06020
H           4.15330         2.85750        -0.79950
H           2.67920         2.00140        -1.28230
H           4.28420         1.27500        -1.58850
H          -0.61910         1.12830         0.61760
H          -3.74610         2.46790        -0.09550
H          -2.87730         2.85480         1.41900
H          -1.99470         2.72810        -0.12440

