%mem=24GB
%nprocshared=12
# B3LYP/6-31+G(d,p) NormalPNO TightSCF printbasis

 Mol2 234

0 1
C          -2.70180         2.55040        -0.45220
C          -2.37280         1.25140         0.27230
C          -0.94640         0.74790        -0.01230
C           0.12110         1.65200         0.55760
C           1.44020         1.58570         0.29540
C           2.12030         0.61760        -0.62610
S           2.92100        -0.66900         0.37850
C           3.55150        -1.69820        -0.96800
N          -0.73460        -0.56140         0.57670
C          -1.17140        -1.70990        -0.03760
C          -0.76390        -2.97480         0.66850
O          -1.81640        -1.72460        -1.08090
H          -2.06290         3.37290        -0.11720
H          -3.74090         2.83520        -0.25850
H          -2.57900         2.43650        -1.53400
H          -3.10120         0.49260        -0.03950
H          -2.52040         1.38950         1.35120
H          -0.82060         0.66530        -1.09910
H          -0.21190         2.41200         1.26270
H           2.09710         2.29820         0.79290
H           1.41900         0.15080        -1.32290
H           2.87540         1.14840        -1.21470
H           4.23830        -1.12520        -1.59630
H           4.09310        -2.54950        -0.54720
H           2.72560        -2.07810        -1.57500
H          -0.05560        -0.64170         1.32450
H          -1.60620        -3.67220         0.66910
H          -0.48110        -2.78150         1.70710
H           0.08460        -3.42050         0.14300

