%mem=24GB
%nprocshared=12
# B3LYP/6-31+G(d,p) NormalPNO TightSCF printbasis

 Mol2 233

0 1
C          -1.94800         2.60990        -0.65580
C          -1.65150         1.26360        -0.00810
C          -0.82590         0.32840        -0.91030
C           0.52350         0.86180        -1.32620
C           1.56430         1.27320        -0.57790
C           1.68960         1.27740         0.91460
S           3.30920         0.61780         1.41840
C           3.07410        -1.12750         1.00630
N          -0.61010        -0.96910        -0.30170
C          -1.59970        -1.92160        -0.24880
C          -1.20090        -3.18590         0.46410
O          -2.71960        -1.77030        -0.72490
H          -1.03290         3.18480        -0.82620
H          -2.59760         3.20420        -0.00500
H          -2.45930         2.47940        -1.61480
H          -1.15480         1.42910         0.95360
H          -2.60810         0.78330         0.23280
H          -1.40770         0.15730        -1.82620
H           0.63750         0.94770        -2.40800
H           2.42720         1.67020        -1.11500
H           0.90930         0.70480         1.41970
H           1.62860         2.31060         1.27100
H           3.96830        -1.68560         1.29700
H           2.92360        -1.25860        -0.06810
H           2.22080        -1.53680         1.55310
H           0.26430        -1.14010         0.17070
H          -1.47350        -4.04560        -0.15430
H          -1.72680        -3.23720         1.42100
H          -0.12380        -3.22530         0.64910

