%mem=24GB
%nprocshared=12
# B3LYP/6-31+G(d,p) NormalPNO TightSCF printbasis

 Mol2 425

0 1
C           0.43960        -2.50490         1.87530
C           0.34380        -0.98590         1.78090
C          -0.37000        -0.44360         0.52770
C           0.32660        -0.80580        -0.75840
C           0.72950         0.04260        -1.72210
C           0.51940         1.52550        -1.76780
S           1.89990         2.39040        -0.96670
C           3.18220         2.13010        -2.21710
N          -1.73020        -0.93710         0.41490
C          -2.84900        -0.44770         1.02150
C          -2.76540         0.88640         1.71040
O          -3.89510        -1.09210         0.97630
H           1.04770        -2.92340         1.06840
H          -0.54930        -2.97210         1.84510
H           0.91200        -2.78820         2.82180
H           1.35720        -0.56770         1.82790
H          -0.18120        -0.62840         2.67510
H          -0.41280         0.64320         0.64010
H           0.53710        -1.86260        -0.91300
H           1.23020        -0.38220        -2.59090
H          -0.40820         1.80870        -1.26080
H           0.41620         1.86210        -2.80480
H           2.85740         2.51970        -3.18540
H           4.08700         2.66520        -1.91600
H           3.42680         1.06890        -2.30800
H          -1.87500        -1.85300         0.00840
H          -2.47210         1.66010         0.99600
H          -2.05540         0.84480         2.53910
H          -3.74870         1.14700         2.11340

