%mem=24GB
%nprocshared=12
# B3LYP/6-31+G(d,p) NormalPNO TightSCF printbasis

 Mol2 484

0 1
C          -2.56020        -1.66450        -0.82810
C          -2.03140        -1.48630         0.59120
C          -0.99200        -0.36220         0.76790
C           0.28830        -0.63380         0.01890
C           1.50910        -0.59440         0.58120
C           2.78700        -0.85700        -0.15400
S           3.73400         0.68910        -0.24610
C           5.18830         0.05930        -1.11580
N          -1.46540         0.93400         0.32110
C          -2.43060         1.62570         1.01670
C          -2.69930         3.00540         0.47800
O          -3.02090         1.18530         1.99700
H          -3.32320        -2.44980        -0.84350
H          -3.02170        -0.74560        -1.20210
H          -1.76860        -1.96330        -1.52100
H          -1.59610        -2.43670         0.92550
H          -2.88880        -1.29580         1.24760
H          -0.77960        -0.27400         1.84170
H           0.20270        -0.85610        -1.04220
H           1.60390        -0.36370         1.64140
H           3.36550        -1.61410         0.38460
H           2.59610        -1.22340        -1.16790
H           5.67700        -0.72050        -0.52600
H           5.89880         0.87610        -1.26820
H           4.90450        -0.34080        -2.09270
H          -0.86180         1.46590        -0.29250
H          -3.77820         3.18370         0.47230
H          -2.33080         3.11540        -0.54580
H          -2.20670         3.74200         1.11790

