%mem=24GB
%nprocshared=12
# B3LYP/6-31+G(d,p) NormalPNO TightSCF printbasis

 Mol2 335

0 1
C          -2.51870        -1.97730        -1.42640
C          -1.65100        -0.78740        -1.81540
C          -0.51230        -0.53370        -0.81420
C           0.37860         0.60850        -1.23090
C           1.71770         0.67210        -1.11310
C           2.62570        -0.38690        -0.56690
S           2.60040        -0.39250         1.25190
C           3.44840         1.17650         1.56460
N          -0.92650        -0.27710         0.55390
C          -1.82040         0.70140         0.92480
C          -1.94350         0.86620         2.41670
O          -2.45820         1.40090         0.14590
H          -3.03710        -1.80130        -0.47900
H          -3.27740        -2.15640        -2.19490
H          -1.91680        -2.88620        -1.32750
H          -1.21870        -0.98480        -2.80500
H          -2.28910         0.09500        -1.93310
H           0.07590        -1.45740        -0.76350
H          -0.14110         1.47770        -1.63510
H           2.20970         1.58360        -1.44920
H           2.32600        -1.37740        -0.92310
H           3.64950        -0.22880        -0.92180
H           3.59370         1.29360         2.64190
H           2.85140         2.01900         1.20670
H           4.42880         1.18470         1.08120
H          -0.25490        -0.56300         1.25700
H          -1.61330        -0.03160         2.94700
H          -1.33530         1.71690         2.73470
H          -2.99150         1.04560         2.67270

