%mem=24GB
%nprocshared=12
# B3LYP/6-31+G(d,p) NormalPNO TightSCF printbasis

 Mol2 74

0 1
C          -0.93960         3.14060         0.38350
C          -1.66870         1.80620         0.47000
C          -0.84930         0.63520        -0.09790
C           0.39620         0.36540         0.70600
C           1.60950         0.15740         0.16520
C           2.85280        -0.09820         0.95940
S           3.31880        -1.85050         0.85850
C           3.99570        -1.88590        -0.81970
N          -1.61300        -0.59710        -0.08180
C          -2.56260        -0.87340        -1.03590
C          -3.26660        -2.18990        -0.84430
O          -2.83680        -0.12010        -1.96440
H          -1.58730         3.94630         0.74370
H          -0.03250         3.14390         0.99550
H          -0.66040         3.36770        -0.65030
H          -2.61450         1.89460        -0.07870
H          -1.94090         1.60990         1.51520
H          -0.59260         0.85740        -1.14170
H           0.28340         0.33870         1.78830
H           1.71930         0.18820        -0.91690
H           3.67230         0.53560         0.60580
H           2.69540         0.14290         2.01620
H           3.21540        -1.68700        -1.55830
H           4.40690        -2.87980        -1.01640
H           4.80020        -1.15340        -0.92380
H          -1.46800        -1.24750         0.67860
H          -4.29710        -2.00150        -0.53200
H          -3.26130        -2.73830        -1.79030
H          -2.77460        -2.80760        -0.08790

