%mem=24GB
%nprocshared=12
# B3LYP/6-31+G(d,p) NormalPNO TightSCF printbasis

 Mol2 131

0 1
C          -2.04720         2.11610         0.23950
C          -1.25470         1.45740        -0.88430
C          -0.63430         0.09170        -0.53590
C           0.37740         0.16510         0.57790
C           1.66420        -0.20300         0.44650
C           2.67570        -0.14200         1.54910
S           3.84670         1.21540         1.26180
C           4.85270         0.47440        -0.04740
N          -1.62930        -0.88290        -0.13440
C          -2.41670        -1.53020        -1.05770
C          -3.45640        -2.43380        -0.45130
O          -2.30780        -1.38760        -2.27080
H          -1.41060         2.35600         1.09590
H          -2.48640         3.05390        -0.11640
H          -2.86500         1.47500         0.58220
H          -1.92430         1.33850        -1.74520
H          -0.46020         2.14460        -1.20180
H          -0.15240        -0.28810        -1.44660
H           0.03770         0.55410         1.53490
H           2.00800        -0.59780        -0.50750
H           2.18930         0.03850         2.51370
H           3.20960        -1.09380         1.63350
H           5.27270        -0.47840         0.28500
H           5.67830         1.15010        -0.28700
H           4.26160         0.32270        -0.95380
H          -1.88370        -0.93350         0.84220
H          -4.43360        -1.94840        -0.51560
H          -3.47570        -3.37780        -1.00290
H          -3.23560        -2.65610         0.59650

