%mem=24GB
%nprocshared=12
# B3LYP/6-31+G(d,p) NormalPNO TightSCF printbasis

 Mol2 305

0 1
C           0.34290        -2.30600         1.38770
C          -0.86540        -1.48400         0.95940
C          -0.49940        -0.31830         0.02380
C           0.02680        -0.78690        -1.30850
C           0.97900        -0.19570        -2.05260
C           1.69210         1.08980        -1.75890
S           3.47180         0.78640        -1.55880
C           3.45760         0.02780         0.08410
N          -1.66160         0.49690        -0.26890
C          -2.10200         1.46130         0.60640
C          -3.36780         2.15260         0.17670
O          -1.53210         1.74040         1.65600
H           0.82310        -2.79160         0.53290
H           1.08480        -1.67730         1.89030
H           0.03500        -3.08970         2.08730
H          -1.35260        -1.09200         1.86100
H          -1.60020        -2.14300         0.47900
H           0.23960         0.30700         0.53730
H          -0.40360        -1.71110        -1.69240
H           1.25300        -0.67040        -2.99480
H           1.56130         1.76190        -2.61360
H           1.30550         1.61700        -0.88310
H           4.48860        -0.13490         0.40990
H           2.95140        -0.93990         0.05830
H           2.96710         0.68460         0.80710
H          -2.25340         0.22810        -1.04320
H          -4.19650         1.79760         0.79480
H          -3.59790         1.95760        -0.87440
H          -3.24680         3.23180         0.30500

