%mem=24GB
%nprocshared=12
# B3LYP/6-31+G(d,p) NormalPNO TightSCF printbasis

 Mol2 198

0 1
C           0.28280        -1.95490        -1.60630
C           1.16910        -1.21080        -0.61600
C           0.76050         0.26230        -0.42700
C          -0.57690         0.52990         0.22070
C          -1.28500        -0.29310         1.01420
C          -2.61500         0.05520         1.60980
S          -3.88010        -1.12280         1.05330
C          -4.05540        -0.57850        -0.66450
N           1.72880         0.95700         0.40180
C           2.91180         1.43190        -0.11410
C           3.83990         2.01810         0.91550
O           3.20760         1.38230        -1.30320
H          -0.75020        -2.02690        -1.25560
H           0.65630        -2.97380        -1.75070
H           0.28130        -1.45560        -2.58050
H           1.17890        -1.74080         0.34420
H           2.20040        -1.25510        -0.98890
H           0.75370         0.73840        -1.41620
H          -0.98870         1.51260        -0.00980
H          -0.89520        -1.27500         1.27320
H          -2.93040         1.07530         1.36770
H          -2.54330        -0.01310         2.70010
H          -4.30740         0.48430        -0.70580
H          -3.13760        -0.76390        -1.22760
H          -4.86480        -1.14330        -1.13530
H           1.63840         0.86130         1.40430
H           4.66050         1.31920         1.09660
H           4.23710         2.96550         0.54080
H           3.32310         2.21440         1.85910

