%mem=24GB
%nprocshared=12
# B3LYP/6-31+G(d,p) NormalPNO TightSCF printbasis

 Mol2 509

0 1
C          -1.44880        -1.46090        -2.57580
C          -0.42380        -1.49300        -1.44870
C          -0.86510        -0.69670        -0.20700
C           0.02780        -0.84060         1.00330
C           1.27950        -1.33040         1.04930
C           2.08750        -1.45090         2.30540
S           3.56190        -0.39510         2.20150
C           2.78460         1.21960         2.45480
N          -0.89670         0.72790        -0.47980
C          -2.05900         1.39720        -0.77830
C          -1.86260         2.85360        -1.10340
O          -3.16700         0.87230        -0.79720
H          -1.57100        -0.45060        -2.97710
H          -1.12230        -2.10630        -3.39760
H          -2.42380        -1.81940        -2.23140
H           0.52770        -1.10740        -1.83620
H          -0.26060        -2.54190        -1.17110
H          -1.86700        -1.03690         0.08300
H          -0.43270        -0.50240         1.93190
H           1.76610        -1.68360         0.14290
H           1.51270        -1.19620         3.20180
H           2.41740        -2.48900         2.41600
H           3.56340         1.98550         2.50370
H           2.11690         1.46430         1.62500
H           2.22770         1.23390         3.39530
H          -0.00950         1.20000        -0.58940
H          -2.61470         3.44320        -0.57170
H          -1.97450         2.99740        -2.18120
H          -0.87390         3.20640        -0.79720

