%mem=24GB
%nprocshared=12
# B3LYP/6-31+G(d,p) NormalPNO TightSCF printbasis

 Mol2 69

0 1
C          -1.69310         2.31650        -0.71730
C          -0.42990         1.50540        -0.45360
C          -0.55050         0.04160        -0.90950
C           0.76130        -0.70380        -0.97430
C           1.73970        -0.85240        -0.06180
C           1.79000        -0.36340         1.35150
S           2.89610         1.06770         1.49920
C           4.49610         0.23460         1.35460
N          -1.43220        -0.73780        -0.06310
C          -2.75440        -0.95100        -0.37180
C          -3.50830        -1.73670         0.66760
O          -3.29840        -0.53720        -1.38990
H          -2.53470         1.94890        -0.12290
H          -1.52870         3.36450        -0.44640
H          -1.97120         2.28100        -1.77520
H          -0.21100         1.56970         0.61680
H           0.40050         1.98680        -0.98490
H          -0.96070         0.04390        -1.92790
H           0.92960        -1.17610        -1.94380
H           2.60310        -1.44270        -0.36850
H           2.13140        -1.16610         2.01370
H           0.80210        -0.07030         1.71390
H           5.29330         0.96570         1.51380
H           4.59050        -0.54830         2.11170
H           4.62200        -0.19600         0.35830
H          -1.08000        -1.04740         0.83040
H          -4.16740        -1.06030         1.21810
H          -2.83260        -2.22810         1.37310
H          -4.10260        -2.50860         0.17070

