%mem=24GB
%nprocshared=12
# B3LYP/6-31+G(d,p) NormalPNO TightSCF printbasis

 Mol2 275

0 1
C          -1.98880        -2.38790         0.98310
C          -1.39210        -1.89690        -0.32970
C          -0.63210        -0.56870        -0.18100
C           0.04530        -0.18910        -1.47340
C           1.26490         0.36360        -1.60520
C           2.19060         0.78050        -0.50150
S           3.59490        -0.36930        -0.45570
C           4.42560         0.28880         1.00900
N          -1.52690         0.52810         0.13150
C          -1.61030         1.07390         1.38950
C          -2.62590         2.17780         1.51610
O          -0.93400         0.70580         2.34420
H          -2.75290        -1.69980         1.35700
H          -1.21510        -2.49690         1.74970
H          -2.46190        -3.36440         0.83850
H          -2.19940        -1.79690        -1.06670
H          -0.70900        -2.66850        -0.70690
H           0.10430        -0.68730         0.62060
H          -0.50290        -0.41450        -2.38690
H           1.62820         0.55970        -2.61330
H           1.69570         0.79680         0.47270
H           2.55680         1.79200        -0.70490
H           4.70430         1.33390         0.85160
H           5.33450        -0.28870         1.19760
H           3.77560         0.20830         1.88420
H          -2.14340         0.85990        -0.59700
H          -2.15540         3.04240         1.99250
H          -3.01050         2.49100         0.54170
H          -3.46000         1.82630         2.12900

